(set-info :source |
 Generated by Alive 0.1
 More info in N. P. Lopes, D. Menendez, S. Nagarakatte, J. Regehr.
 Provably Correct Peephole Optimizations with Alive. In PLDI'15.
|)

(set-info :status unknown)
(declare-fun C () (_ BitVec 44))
(declare-fun %b () (_ BitVec 44))
(declare-fun %a () (_ BitVec 44))
(assert
 (let ((?x170534 (ite (bvult %b C) (_ bv1 1) (_ bv0 1))))
 (let ((?x170202 (ite (bvult %a C) (_ bv1 1) (_ bv0 1))))
 (let (($x169511 (and (distinct (bvand ?x170202 ?x170534) (ite (bvult (bvor %a %b) C) (_ bv1 1) (_ bv0 1))) true)))
 (let (($x145479 (and (and (distinct C (_ bv0 44)) true) (= (bvand C (bvsub C (_ bv1 44))) (_ bv0 44)))))
 (and $x145479 $x169511))))))
(check-sat)
